c This file is generated by oracV2cnf
c Generated on Wed Sep 23 22:14:14 2015
p cnf 443 1172
-1 -2 -3 -4 -87 0
1 87 0
2 87 0
3 87 0
4 87 0
-1 -5 -3 -4 -88 0
1 88 0
5 88 0
3 88 0
4 88 0
-6 -7 -8 89 0
6 -89 0
7 -89 0
8 -89 0
-1 -5 -9 90 0
1 -90 0
5 -90 0
9 -90 0
-1 -2 -9 -4 -91 0
1 91 0
2 91 0
9 91 0
4 91 0
-1 -2 -3 -10 -92 0
1 92 0
2 92 0
3 92 0
10 92 0
-11 -8 -12 -13 -93 0
11 93 0
8 93 0
12 93 0
13 93 0
-6 -12 -94 0
6 94 0
12 94 0
-11 -12 -15 -95 0
11 95 0
12 95 0
15 95 0
-6 -16 -17 96 0
6 -96 0
16 -96 0
17 -96 0
-6 -16 -8 97 0
6 -97 0
16 -97 0
8 -97 0
-6 -7 -17 98 0
6 -98 0
7 -98 0
17 -98 0
-6 -7 -8 99 0
6 -99 0
7 -99 0
8 -99 0
-11 -16 -17 100 0
11 -100 0
16 -100 0
17 -100 0
-11 -16 -8 101 0
11 -101 0
16 -101 0
8 -101 0
-11 -7 -17 102 0
11 -102 0
7 -102 0
17 -102 0
-11 -7 -8 103 0
11 -103 0
7 -103 0
8 -103 0
-18 -19 104 0
18 -104 0
19 -104 0
20 21 -105 0
-20 105 0
-21 105 0
-24 -25 -106 0
24 106 0
25 106 0
24 25 -107 0
-24 107 0
-25 107 0
-26 -27 -108 0
26 108 0
27 108 0
26 27 -109 0
-26 109 0
-27 109 0
-28 -29 -110 0
28 110 0
29 110 0
28 29 -111 0
-28 111 0
-29 111 0
-30 -31 -112 0
30 112 0
31 112 0
30 31 -113 0
-30 113 0
-31 113 0
-2 -34 114 0
2 -114 0
34 -114 0
60 115 0
-60 -115 0
-9 -34 116 0
9 -116 0
34 -116 0
-4 -34 117 0
4 -117 0
34 -117 0
-38 -34 118 0
38 -118 0
34 -118 0
-11 -40 -119 0
11 119 0
40 119 0
4 8 120 0
-4 -120 0
-8 -120 0
-4 -8 121 0
4 -121 0
8 -121 0
-41 -42 -122 0
41 122 0
42 122 0
41 42 -123 0
-41 123 0
-42 123 0
-43 -44 -124 0
43 124 0
44 124 0
43 44 -125 0
-43 125 0
-44 125 0
-45 -46 -126 0
45 126 0
46 126 0
45 46 -127 0
-45 127 0
-46 127 0
-47 -48 -128 0
47 128 0
48 128 0
47 48 -129 0
-47 129 0
-48 129 0
-50 -24 130 0
50 -130 0
24 -130 0
-50 -25 131 0
50 -131 0
25 -131 0
-50 -26 132 0
50 -132 0
26 -132 0
-50 -27 133 0
50 -133 0
27 -133 0
-50 -28 134 0
50 -134 0
28 -134 0
-55 -56 135 0
55 -135 0
56 -135 0
-50 -29 136 0
50 -136 0
29 -136 0
-55 -57 137 0
55 -137 0
57 -137 0
-50 -30 138 0
50 -138 0
30 -138 0
-55 -59 139 0
55 -139 0
59 -139 0
87 140 0
-87 -140 0
89 141 0
-89 -141 0
88 89 -142 0
-88 142 0
-89 142 0
90 143 0
-90 -143 0
90 144 0
-90 -144 0
91 145 0
-91 -145 0
92 93 146 0
-92 -146 0
-93 -146 0
92 94 -147 0
-92 147 0
-94 147 0
92 95 -148 0
-92 148 0
-95 148 0
100 149 0
-100 -149 0
101 150 0
-101 -150 0
102 151 0
-102 -151 0
103 152 0
-103 -152 0
-22 -105 -153 0
22 153 0
105 153 0
-23 -105 154 0
23 -154 0
105 -154 0
-106 -107 -155 0
106 155 0
107 155 0
-108 -109 -156 0
108 156 0
109 156 0
-110 -111 -157 0
110 157 0
111 157 0
-112 -113 -158 0
112 158 0
113 158 0
115 159 0
-115 -159 0
120 121 160 0
-120 -160 0
-121 -160 0
-122 -123 -161 0
122 161 0
123 161 0
-124 -125 -162 0
124 162 0
125 162 0
-126 -127 -163 0
126 163 0
127 163 0
-128 -129 -164 0
128 164 0
129 164 0
97 -61 0
-97 61 0
98 -62 0
-98 62 0
99 -63 0
-99 63 0
104 -64 0
-104 64 0
88 141 -165 0
-88 165 0
-141 165 0
143 166 0
-143 -166 0
144 167 0
-144 -167 0
-146 -14 168 0
146 -168 0
14 -168 0
147 169 0
-147 -169 0
148 170 0
-148 -170 0
153 171 0
-153 -171 0
155 172 0
-155 -172 0
156 173 0
-156 -173 0
-155 -156 174 0
155 -174 0
156 -174 0
157 175 0
-157 -175 0
158 176 0
-158 -176 0
-157 -158 177 0
157 -177 0
158 -177 0
-145 -150 -178 0
145 178 0
150 178 0
161 179 0
-161 -179 0
162 180 0
-162 -180 0
-161 -162 181 0
161 -181 0
162 -181 0
163 182 0
-163 -182 0
164 183 0
-164 -183 0
-163 -164 184 0
163 -184 0
164 -184 0
-50 -159 185 0
50 -185 0
159 -185 0
140 -65 0
-140 65 0
142 -66 0
-142 66 0
149 -67 0
-149 67 0
151 -68 0
-151 68 0
152 -69 0
-152 69 0
154 -70 0
-154 70 0
168 186 0
-168 -186 0
-172 -173 187 0
172 -187 0
173 -187 0
-175 -176 188 0
175 -188 0
176 -188 0
-119 -166 -10 189 0
119 -189 0
166 -189 0
10 -189 0
-166 -4 -96 190 0
166 -190 0
4 -190 0
96 -190 0
-166 -96 -10 -191 0
166 191 0
96 191 0
10 191 0
-160 -11 -40 -166 -192 0
160 192 0
11 192 0
40 192 0
166 192 0
-166 -119 -4 -193 0
166 193 0
119 193 0
4 193 0
-179 -180 194 0
179 -194 0
180 -194 0
-182 -183 195 0
182 -195 0
183 -195 0
165 -71 0
-165 71 0
167 -72 0
-167 72 0
169 -73 0
-169 73 0
170 -74 0
-170 74 0
171 -75 0
-171 75 0
186 196 0
-186 -196 0
174 187 197 0
-174 -197 0
-187 -197 0
177 188 198 0
-177 -198 0
-188 -198 0
-192 -178 -199 0
192 199 0
178 199 0
-35 -189 200 0
35 -200 0
189 -200 0
-115 -190 201 0
115 -201 0
190 -201 0
-36 -189 202 0
36 -202 0
189 -202 0
-115 -190 203 0
115 -203 0
190 -203 0
-37 -189 204 0
37 -204 0
189 -204 0
-115 -190 205 0
115 -205 0
190 -205 0
-39 -189 206 0
39 -206 0
189 -206 0
-115 -190 207 0
115 -207 0
190 -207 0
-193 -1 -208 0
193 208 0
1 208 0
159 191 -209 0
-159 209 0
-191 209 0
159 191 -210 0
-159 210 0
-191 210 0
159 191 -211 0
-159 211 0
-191 211 0
159 191 -212 0
-159 212 0
-191 212 0
181 194 213 0
-181 -213 0
-194 -213 0
184 195 214 0
-184 -214 0
-195 -214 0
-32 -197 -215 0
32 215 0
197 215 0
32 197 -216 0
-32 216 0
-197 216 0
-198 -33 -217 0
198 217 0
33 217 0
198 33 -218 0
-198 218 0
-33 218 0
-24 -199 219 0
24 -219 0
199 -219 0
200 201 220 0
-200 -220 0
-201 -220 0
-25 -199 221 0
25 -221 0
199 -221 0
202 203 222 0
-202 -222 0
-203 -222 0
-26 -199 223 0
26 -223 0
199 -223 0
204 205 224 0
-204 -224 0
-205 -224 0
-27 -199 225 0
27 -225 0
199 -225 0
206 207 226 0
-206 -226 0
-207 -226 0
-35 -208 227 0
35 -227 0
208 -227 0
-28 -199 228 0
28 -228 0
199 -228 0
-36 -208 229 0
36 -229 0
208 -229 0
-29 -199 230 0
29 -230 0
199 -230 0
-37 -208 231 0
37 -231 0
208 -231 0
-30 -199 232 0
30 -232 0
199 -232 0
-39 -208 233 0
39 -233 0
208 -233 0
-31 -199 234 0
31 -234 0
199 -234 0
-32 -213 -235 0
32 235 0
213 235 0
32 213 -236 0
-32 236 0
-213 236 0
-214 -49 -237 0
214 237 0
49 237 0
214 49 -238 0
-214 238 0
-49 238 0
-196 -41 239 0
196 -239 0
41 -239 0
-196 -42 240 0
196 -240 0
42 -240 0
-196 -43 241 0
196 -241 0
43 -241 0
-196 -44 242 0
196 -242 0
44 -242 0
-196 -45 243 0
196 -243 0
45 -243 0
-196 -46 -244 0
196 244 0
46 244 0
-196 -47 -245 0
196 245 0
47 245 0
-196 -48 -246 0
196 246 0
48 246 0
-215 -216 -247 0
215 247 0
216 247 0
-217 -218 -248 0
217 248 0
218 248 0
114 219 249 0
-114 -249 0
-219 -249 0
116 221 250 0
-116 -250 0
-221 -250 0
117 223 251 0
-117 -251 0
-223 -251 0
118 225 252 0
-118 -252 0
-225 -252 0
227 228 253 0
-227 -253 0
-228 -253 0
229 230 254 0
-229 -254 0
-230 -254 0
231 232 255 0
-231 -255 0
-232 -255 0
233 234 256 0
-233 -256 0
-234 -256 0
-235 -236 -257 0
235 257 0
236 257 0
-237 -238 -258 0
237 258 0
238 258 0
247 259 0
-247 -259 0
248 260 0
-248 -260 0
-247 -248 261 0
247 -261 0
248 -261 0
-249 -220 -262 0
249 262 0
220 262 0
-250 -222 -263 0
250 263 0
222 263 0
-251 -224 -264 0
251 264 0
224 264 0
-252 -226 -265 0
252 265 0
226 265 0
-209 -253 -266 0
209 266 0
253 266 0
-210 -254 -267 0
210 267 0
254 267 0
-211 -255 -268 0
211 268 0
255 268 0
-212 -256 -269 0
212 269 0
256 269 0
257 270 0
-257 -270 0
258 271 0
-258 -271 0
-257 -258 272 0
257 -272 0
258 -272 0
-259 -260 273 0
259 -273 0
260 -273 0
-270 -271 274 0
270 -274 0
271 -274 0
-262 -41 -275 0
262 275 0
41 275 0
262 41 -276 0
-262 276 0
-41 276 0
-54 -262 277 0
54 -277 0
262 -277 0
-263 -42 -278 0
263 278 0
42 278 0
263 42 -279 0
-263 279 0
-42 279 0
-54 -263 280 0
54 -280 0
263 -280 0
-264 -43 -281 0
264 281 0
43 281 0
264 43 -282 0
-264 282 0
-43 282 0
-54 -264 283 0
54 -283 0
264 -283 0
-265 -44 -284 0
265 284 0
44 284 0
265 44 -285 0
-265 285 0
-44 285 0
-54 -265 286 0
54 -286 0
265 -286 0
-266 -45 -287 0
266 287 0
45 287 0
266 45 -288 0
-266 288 0
-45 288 0
-54 -266 289 0
54 -289 0
266 -289 0
-267 -46 -290 0
267 290 0
46 290 0
267 46 -291 0
-267 291 0
-46 291 0
-54 -267 292 0
54 -292 0
267 -292 0
-268 -47 -293 0
268 293 0
47 293 0
268 47 -294 0
-268 294 0
-47 294 0
-54 -268 295 0
54 -295 0
268 -295 0
-269 -48 -296 0
269 296 0
48 296 0
269 48 -297 0
-269 297 0
-48 297 0
-54 -269 298 0
54 -298 0
269 -298 0
261 273 299 0
-261 -299 0
-273 -299 0
272 274 300 0
-272 -300 0
-274 -300 0
275 301 0
-275 -301 0
-276 -275 302 0
276 -302 0
275 -302 0
277 239 303 0
-277 -303 0
-239 -303 0
278 304 0
-278 -304 0
-279 -278 305 0
279 -305 0
278 -305 0
280 240 306 0
-280 -306 0
-240 -306 0
281 307 0
-281 -307 0
-282 -281 308 0
282 -308 0
281 -308 0
283 241 309 0
-283 -309 0
-241 -309 0
284 310 0
-284 -310 0
-285 -284 311 0
285 -311 0
284 -311 0
286 242 312 0
-286 -312 0
-242 -312 0
287 313 0
-287 -313 0
-288 -287 314 0
288 -314 0
287 -314 0
289 243 315 0
-289 -315 0
-243 -315 0
290 316 0
-290 -316 0
-291 -290 317 0
291 -317 0
290 -317 0
135 292 318 0
-135 -318 0
-292 -318 0
293 319 0
-293 -319 0
-294 -293 320 0
294 -320 0
293 -320 0
137 295 321 0
-137 -321 0
-295 -321 0
296 322 0
-296 -322 0
-297 -296 323 0
297 -323 0
296 -323 0
139 298 324 0
-139 -324 0
-298 -324 0
-297 -58 -325 0
297 325 0
58 325 0
-294 -297 -58 -326 0
294 326 0
297 326 0
58 326 0
-291 -294 -297 -58 -327 0
291 327 0
294 327 0
297 327 0
58 327 0
301 328 0
-301 -328 0
-52 -302 329 0
52 -329 0
302 -329 0
-53 -301 330 0
53 -330 0
301 -330 0
304 331 0
-304 -331 0
-52 -305 332 0
52 -332 0
305 -332 0
-53 -304 333 0
53 -333 0
304 -333 0
307 334 0
-307 -334 0
-52 -308 335 0
52 -335 0
308 -335 0
-53 -307 336 0
53 -336 0
307 -336 0
310 337 0
-310 -337 0
-52 -311 338 0
52 -338 0
311 -338 0
-53 -310 339 0
53 -339 0
310 -339 0
313 340 0
-313 -340 0
-52 -314 341 0
52 -341 0
314 -341 0
-53 -313 342 0
53 -342 0
313 -342 0
316 343 0
-316 -343 0
-52 -317 344 0
52 -344 0
317 -344 0
-53 -316 345 0
53 -345 0
316 -345 0
319 346 0
-319 -346 0
-52 -320 347 0
52 -347 0
320 -347 0
-53 -319 348 0
53 -348 0
319 -348 0
322 349 0
-322 -349 0
323 58 350 0
-323 -350 0
-58 -350 0
-323 -58 351 0
323 -351 0
58 -351 0
-52 -323 352 0
52 -352 0
323 -352 0
-53 -322 353 0
53 -353 0
322 -353 0
-294 -322 -354 0
294 354 0
322 354 0
-291 -319 -355 0
291 355 0
319 355 0
-291 -294 -322 -356 0
291 356 0
294 356 0
322 356 0
-282 -310 -357 0
282 357 0
310 357 0
-279 -307 -358 0
279 358 0
307 358 0
-279 -282 -310 -359 0
279 359 0
282 359 0
310 359 0
299 -76 0
-299 76 0
300 -77 0
-300 77 0
329 330 360 0
-329 -360 0
-330 -360 0
332 333 361 0
-332 -361 0
-333 -361 0
335 336 362 0
-335 -362 0
-336 -362 0
338 339 363 0
-338 -363 0
-339 -363 0
-343 -355 -356 -327 -364 0
343 364 0
355 364 0
356 364 0
327 364 0
341 342 365 0
-341 -365 0
-342 -365 0
-346 -354 -326 -366 0
346 366 0
354 366 0
326 366 0
344 345 367 0
-344 -367 0
-345 -367 0
-349 -325 -368 0
349 368 0
325 368 0
347 348 369 0
-347 -369 0
-348 -369 0
350 351 370 0
-350 -370 0
-351 -370 0
352 353 371 0
-352 -371 0
-353 -371 0
314 364 372 0
-314 -372 0
-364 -372 0
-314 -364 373 0
314 -373 0
364 -373 0
317 366 374 0
-317 -374 0
-366 -374 0
-317 -366 375 0
317 -375 0
366 -375 0
320 368 376 0
-320 -376 0
-368 -376 0
-320 -368 377 0
320 -377 0
368 -377 0
-51 -370 378 0
51 -378 0
370 -378 0
-288 -364 -379 0
288 379 0
364 379 0
-379 -340 -380 0
379 380 0
340 380 0
372 373 381 0
-372 -381 0
-373 -381 0
374 375 382 0
-374 -382 0
-375 -382 0
376 377 383 0
-376 -383 0
-377 -383 0
138 378 384 0
-138 -384 0
-378 -384 0
311 380 385 0
-311 -385 0
-380 -385 0
-311 -380 386 0
311 -386 0
380 -386 0
-51 -381 387 0
51 -387 0
381 -387 0
-51 -382 388 0
51 -388 0
382 -388 0
-51 -383 389 0
51 -389 0
383 -389 0
-384 -371 -324 -246 -390 0
384 390 0
371 390 0
324 390 0
246 390 0
-285 -380 -391 0
285 391 0
380 391 0
-282 -285 -380 -392 0
282 392 0
285 392 0
380 392 0
-279 -282 -285 -380 -393 0
279 393 0
282 393 0
285 393 0
380 393 0
-331 -358 -359 -393 -394 0
331 394 0
358 394 0
359 394 0
393 394 0
-334 -357 -392 -395 0
334 395 0
357 395 0
392 395 0
-337 -391 -396 0
337 396 0
391 396 0
385 386 397 0
-385 -397 0
-386 -397 0
133 387 398 0
-133 -398 0
-387 -398 0
134 388 399 0
-134 -399 0
-388 -399 0
136 389 400 0
-136 -400 0
-389 -400 0
390 401 0
-390 -401 0
302 394 402 0
-302 -402 0
-394 -402 0
-302 -394 403 0
302 -403 0
394 -403 0
305 395 404 0
-305 -404 0
-395 -404 0
-305 -395 405 0
305 -405 0
395 -405 0
308 396 406 0
-308 -406 0
-396 -406 0
-308 -396 407 0
308 -407 0
396 -407 0
-51 -397 408 0
51 -408 0
397 -408 0
-398 -365 -315 -409 0
398 409 0
365 409 0
315 409 0
-399 -367 -318 -244 -410 0
399 410 0
367 410 0
318 410 0
244 410 0
-400 -369 -321 -245 -411 0
400 411 0
369 411 0
321 411 0
245 411 0
401 412 0
-401 -412 0
-394 -276 -413 0
394 413 0
276 413 0
402 403 414 0
-402 -414 0
-403 -414 0
404 405 415 0
-404 -415 0
-405 -415 0
406 407 416 0
-406 -416 0
-407 -416 0
132 408 417 0
-132 -417 0
-408 -417 0
409 418 0
-409 -418 0
410 419 0
-410 -419 0
411 420 0
-411 -420 0
-328 -413 421 0
328 -421 0
413 -421 0
412 -78 0
-412 78 0
-51 -414 422 0
51 -422 0
414 -422 0
-51 -415 423 0
51 -423 0
415 -423 0
-51 -416 424 0
51 -424 0
416 -424 0
-417 -363 -312 -425 0
417 425 0
363 425 0
312 425 0
418 426 0
-418 -426 0
419 427 0
-419 -427 0
420 428 0
-420 -428 0
421 429 0
-421 -429 0
185 422 430 0
-185 -430 0
-422 -430 0
130 423 431 0
-130 -431 0
-423 -431 0
131 424 432 0
-131 -432 0
-424 -432 0
425 433 0
-425 -433 0
426 -79 0
-426 79 0
427 -80 0
-427 80 0
428 -81 0
-428 81 0
429 -82 0
-429 82 0
-430 -360 -303 -434 0
430 434 0
360 434 0
303 434 0
-431 -361 -306 -435 0
431 435 0
361 435 0
306 435 0
-432 -362 -309 -436 0
432 436 0
362 436 0
309 436 0
433 437 0
-433 -437 0
434 438 0
-434 -438 0
435 439 0
-435 -439 0
436 440 0
-436 -440 0
437 -83 0
-437 83 0
438 441 0
-438 -441 0
439 442 0
-439 -442 0
440 443 0
-440 -443 0
441 -84 0
-441 84 0
442 -85 0
-442 85 0
443 -86 0
-443 86 0
c assign values for PIs:
1 0
2 0
3 0
4 0
-5 0
6 0
7 0
8 0
-9 0
10 0
11 0
12 0
13 0
14 0
-15 0
-16 0
17 0
18 0
-19 0
-20 0
21 0
-22 0
-23 0
-24 0
25 0
-26 0
-27 0
28 0
-29 0
-30 0
-31 0
-32 0
33 0
34 0
-35 0
-36 0
-37 0
-38 0
39 0
-40 0
41 0
-42 0
43 0
44 0
-45 0
46 0
47 0
48 0
-49 0
-50 0
51 0
52 0
-53 0
-54 0
55 0
-56 0
-57 0
58 0
59 0
60 0
